
  32    4
  10   10   10   10

   0   0   0   0   0   1 2 
   7  10  10  10  10   1 3 
   8  10  10  10  10   6 9 8 7 6 5 4 
   7  10  10  10  10   2 11 10 
  10  10  10  10  10   2 11 10 
   8  10  10  10  10   2 11 10 
  10  10  10  10  10   2 11 10 
   4  10  10  10  10   2 11 10 
   4  10  10  10  10   2 11 10 
   8  10  10  10  10   1 12 
   9  10  10  10  10   1 12 
  10  10  10  10  10   1 13 
   7  10  10  10  10   4 18 17 15 14 
   8  10  10  10  10   1 16 
   8  10  10  10  10   1 16 
   2  10  10  10  10   1 19 
   6  10  10  10  10   1 19 
   1  10  10  10  10   1 19 
   2  10  10  10  10   2 21 20 
   8  10  10  10  10   3 24 23 22 
   3  10  10  10  10   3 24 23 22 
   7  10  10  10  10   2 26 25 
   4  10  10  10  10   2 26 25 
   5  10  10  10  10   1 25 
   8  10  10  10  10   2 28 27 
   2  10  10  10  10   2 30 28 
   1  10  10  10  10   2 30 29 
   4  10  10  10  10   1 29 
   5  10  10  10  10   1 31 
   1  10  10  10  10   1 31 
   3  10  10  10  10   1 32
   0   0   0   0   0   0 
